p cnf 56 167
a 18 26 0
e 1 2 3 4 5 6 7 8 9 10 11 12 13 14 15 16 17 19 20 21 22 23 24 25 27 28 29 30 31 32 33 34 35 36 37 38 39 40 41 42 43 44 45 46 47 48 49 50 51 52 53 54 55 56 0
-1 2 0
1 2 0
3 4 -5 0
-3 -4 -5 0
3 -4 5 0
-3 4 5 0
-6 -5 0
-6 -4 0
5 4 6 0
7 8 -9 0
-7 -8 -9 0
7 -8 9 0
-7 8 9 0
-8 4 -10 0
8 -4 -10 0
-8 -4 10 0
8 4 10 0
-12 -8 0
-12 11 0
8 -11 12 0
13 12 0
13 -11 0
-12 11 -13 0
14 -10 0
14 13 0
10 -13 -14 0
-9 14 -15 0
9 -14 -15 0
-9 -14 15 0
9 14 15 0
16 6 0
16 -15 0
-6 15 -16 0
-2 -16 -17 0
2 16 -17 0
-2 16 17 0
2 -16 17 0
-18 7 -19 0
18 -7 -19 0
-18 -7 19 0
18 7 19 0
-20 -19 0
-20 5 0
19 -5 20 0
-17 20 -21 0
17 -20 -21 0
-17 -20 21 0
17 20 21 0
-22 4 0
-22 9 0
-4 -9 22 0
21 -22 -23 0
-21 22 -23 0
21 22 23 0
-21 -22 23 0
24 -5 0
24 9 0
5 -9 -24 0
-26 24 0
-26 -25 0
-24 25 26 0
-26 -12 -27 0
26 12 -27 0
-26 12 27 0
26 -12 27 0
-28 -27 0
-28 3 0
27 -3 28 0
-29 -23 0
-29 -28 0
23 28 29 0
-30 -24 0
-30 -24 0
24 30 0
-31 11 0
-31 -5 0
-11 5 31 0
30 -31 -32 0
-30 31 -32 0
30 31 32 0
-30 -31 32 0
-29 32 -33 0
29 -32 -33 0
-29 -32 33 0
29 32 33 0
5 10 -34 0
-5 -10 -34 0
5 -10 34 0
-5 10 34 0
-35 34 0
-35 -24 0
-34 24 35 0
-37 4 0
-37 -36 0
-4 36 37 0
38 -12 0
38 -37 0
12 37 -38 0
-39 -35 0
-39 -38 0
35 38 39 0
40 -24 0
40 26 0
24 -26 -40 0
41 19 0
41 4 0
-19 -4 -41 0
-42 -15 0
-42 41 0
15 -41 42 0
43 40 0
43 -42 0
-40 42 -43 0
-44 -10 0
-44 -1 0
10 1 44 0
-45 -43 0
-45 44 0
43 -44 45 0
-46 -19 0
-46 25 0
19 -25 46 0
47 -41 0
47 46 0
41 -46 -47 0
14 -48 -49 0
-14 48 -49 0
14 48 49 0
-14 -48 49 0
-50 -36 0
-50 -12 0
36 12 50 0
51 -50 0
51 8 0
50 -8 -51 0
-52 49 0
-52 -51 0
-49 51 52 0
47 52 -53 0
-47 -52 -53 0
47 -52 53 0
-47 52 53 0
54 -45 0
54 -53 0
45 53 -54 0
-55 39 0
-55 -54 0
-39 54 55 0
56 33 0
56 55 0
-33 -55 -56 0
38 14 9 -51 11 42 33 40 0
14 -38 16 -42 7 13 -26 0
28 19 -33 -48 53 46 0
6 -21 -44 32 -23 12 0
-38 55 -37 -13 48 0
-53 -37 24 -20 -48 -15 26 0
-36 -26 45 0
40 48 46 -28 26 -54 -41 0
5 47 -9 34 12 -10 0
-1 29 56 -43 -4 -27 0
35 -30 -49 -19 -41 0
-38 -54 49 -30 5 -52 0
-12 -41 -2 -25 0
-30 -38 37 -27 -13 -31 0
-47 21 -45 -36 -41 -30 4 5 0
56 0
